Version identifier: 22.1.0.0 | 2022-03-09 | 1a383f8ce
CPXPARAM_Read_DataCheck                          1
CPXPARAM_TimeLimit                               600
Tried aggregator 4 times.
MIP Presolve eliminated 108680 rows and 9941 columns.
MIP Presolve modified 1200 coefficients.
Aggregator did 101349 substitutions.
Reduced MIP has 10111 rows, 102910 columns, and 216147 nonzeros.
Reduced MIP has 102870 binaries, 40 generals, 0 SOSs, and 0 indicators.
Presolve time = 1.39 sec. (1460.06 ticks)
Tried aggregator 1 time.
Detecting symmetries...
Reduced MIP has 10111 rows, 102910 columns, and 216147 nonzeros.
Reduced MIP has 102870 binaries, 40 generals, 0 SOSs, and 0 indicators.
Presolve time = 0.26 sec. (177.87 ticks)
Probing fixed 65 vars, tightened 0 bounds.
Probing time = 0.62 sec. (54.82 ticks)
Clique table members: 208056.
MIP emphasis: balance optimality and feasibility.
MIP search method: dynamic search.
Parallel mode: deterministic, using up to 8 threads.
Root relaxation solution time = 1.80 sec. (757.29 ticks)

        Nodes                                         Cuts/
   Node  Left     Objective  IInf  Best Integer    Best Bound    ItCnt     Gap

      0     0       40.3814  7133                     40.3814       25         
      0     0       63.0000   953                    Cuts: 36    14814         
      0     0       63.0000   824                    Cuts: 76    25353         
      0     0       63.0000   768                ZeroHalf: 59    34699         
      0     0       63.0000   767                    Cuts: 40    43742         
      0     0       63.0000   710                ZeroHalf: 41    51618         
      0     0       63.0000   794                ZeroHalf: 51    59548         
Heuristic still looking.
Heuristic still looking.
*     0+    0                           71.0000       63.0000            11.27%
*     0+    0                           70.0000       63.0000            10.00%
      0     0  -1.00000e+75     0       70.0000       63.0000    59548   10.00%
      0     2       63.0000   794       70.0000       63.0000    59548   10.00%
Elapsed time = 384.94 sec. (242108.35 ticks, tree = 0.02 MB, solutions = 2)
      1     3       63.0000   830       70.0000       63.0000    66400   10.00%
      2     3       63.0000   757       70.0000       63.0000    73386   10.00%
      3     4       63.0000   779       70.0000       63.0000    76010   10.00%
      4     4       63.0000   650       70.0000       63.0000    89554   10.00%
      5     5       63.0000   925       70.0000       63.0000    89782   10.00%
*     6+    3                           69.0000       63.0000             8.70%
      6     5       63.0000   670       69.0000       63.0000    88721    8.70%
Starting limited solution polishing.
      7     7       63.0000   568       69.0000       63.0000   116638    8.70%
      8     6       63.0000   759       69.0000       63.0000    99348    8.70%
      9     9       63.0000   619       69.0000       63.0000   136901    8.70%
     11     7       63.0000   613       69.0000       63.0000   123755    8.70%
Elapsed time = 568.31 sec. (294860.22 ticks, tree = 0.12 MB, solutions = 4)
*    12+    7                           68.0000       63.0000             7.35%
     12     9       63.0000   654       68.0000       63.0000   134840    7.35%
     13     6       63.0000   844       68.0000       63.0000   100279    7.35%

Clique cuts applied:  1
Zero-half cuts applied:  169
Lift and project cuts applied:  2
Gomory fractional cuts applied:  25

Root node processing (before b&c):
  Real time             =  384.49 sec. (241937.45 ticks)
Parallel b&c, 8 threads:
  Real time             =  215.63 sec. (64711.49 ticks)
  Sync time (average)   =   75.40 sec.
  Wait time (average)   =    0.00 sec.
                          ------------
Total (root+branch&cut) =  600.12 sec. (306648.94 ticks)
